(set-logic QF_LRA)
(declare-fun X0 () Real )
(declare-fun Y0 () Real )
(declare-fun X1 () Real )
(declare-fun Y1 () Real )
(declare-fun X2 () Real )
(declare-fun Y2 () Real )
(declare-fun X3 () Real )
(declare-fun Y3 () Real )
(declare-fun X4 () Real )
(declare-fun Y4 () Real )
(declare-fun X5 () Real )
(declare-fun Y5 () Real )
(declare-fun X6 () Real )
(declare-fun Y6 () Real )
(declare-fun X7 () Real )
(declare-fun Y7 () Real )
(declare-fun X8 () Real )
(declare-fun Y8 () Real )
(declare-fun X9 () Real )
(declare-fun Y9 () Real )
(declare-fun X10 () Real )
(declare-fun Y10 () Real )
(declare-fun X11 () Real )
(declare-fun Y11 () Real )
(declare-fun X12 () Real )
(declare-fun Y12 () Real )
(declare-fun X13 () Real )
(declare-fun Y13 () Real )
(declare-fun X14 () Real )
(declare-fun Y14 () Real )
(declare-fun Z () Real )
(declare-fun k () Real )
(assert (let
(( $goal (>= Z k) ))
(let
((
$phi ( and 
( or ( <= ( + X0 9 ) X1 )  ( <= ( + X1 53 ) X0 )  ( <= ( + Y0 26 ) Y1 )  ( <= ( + Y1 83 ) Y0 )  )
( or ( <= ( + X0 9 ) X2 )  ( <= ( + X2 6 ) X0 )  ( <= ( + Y0 26 ) Y2 )  ( <= ( + Y2 3 ) Y0 )  )
( or ( <= ( + X0 9 ) X3 )  ( <= ( + X3 81 ) X0 )  ( <= ( + Y0 26 ) Y3 )  ( <= ( + Y3 30 ) Y0 )  )
( or ( <= ( + X0 9 ) X4 )  ( <= ( + X4 51 ) X0 )  ( <= ( + Y0 26 ) Y4 )  ( <= ( + Y4 84 ) Y0 )  )
( or ( <= ( + X0 9 ) X5 )  ( <= ( + X5 20 ) X0 )  ( <= ( + Y0 26 ) Y5 )  ( <= ( + Y5 94 ) Y0 )  )
( or ( <= ( + X0 9 ) X6 )  ( <= ( + X6 74 ) X0 )  ( <= ( + Y0 26 ) Y6 )  ( <= ( + Y6 35 ) Y0 )  )
( or ( <= ( + X0 9 ) X7 )  ( <= ( + X7 26 ) X0 )  ( <= ( + Y0 26 ) Y7 )  ( <= ( + Y7 97 ) Y0 )  )
( or ( <= ( + X0 9 ) X8 )  ( <= ( + X8 86 ) X0 )  ( <= ( + Y0 26 ) Y8 )  ( <= ( + Y8 15 ) Y0 )  )
( or ( <= ( + X0 9 ) X9 )  ( <= ( + X9 97 ) X0 )  ( <= ( + Y0 26 ) Y9 )  ( <= ( + Y9 54 ) Y0 )  )
( or ( <= ( + X0 9 ) X10 )  ( <= ( + X10 55 ) X0 )  ( <= ( + Y0 26 ) Y10 )  ( <= ( + Y10 53 ) Y0 )  )
( or ( <= ( + X0 9 ) X11 )  ( <= ( + X11 27 ) X0 )  ( <= ( + Y0 26 ) Y11 )  ( <= ( + Y11 16 ) Y0 )  )
( or ( <= ( + X0 9 ) X12 )  ( <= ( + X12 49 ) X0 )  ( <= ( + Y0 26 ) Y12 )  ( <= ( + Y12 59 ) Y0 )  )
( or ( <= ( + X0 9 ) X13 )  ( <= ( + X13 44 ) X0 )  ( <= ( + Y0 26 ) Y13 )  ( <= ( + Y13 14 ) Y0 )  )
( or ( <= ( + X0 9 ) X14 )  ( <= ( + X14 82 ) X0 )  ( <= ( + Y0 26 ) Y14 )  ( <= ( + Y14 23 ) Y0 )  )
( or ( <= ( + X1 53 ) X2 )  ( <= ( + X2 6 ) X1 )  ( <= ( + Y1 83 ) Y2 )  ( <= ( + Y2 3 ) Y1 )  )
( or ( <= ( + X1 53 ) X3 )  ( <= ( + X3 81 ) X1 )  ( <= ( + Y1 83 ) Y3 )  ( <= ( + Y3 30 ) Y1 )  )
( or ( <= ( + X1 53 ) X4 )  ( <= ( + X4 51 ) X1 )  ( <= ( + Y1 83 ) Y4 )  ( <= ( + Y4 84 ) Y1 )  )
( or ( <= ( + X1 53 ) X5 )  ( <= ( + X5 20 ) X1 )  ( <= ( + Y1 83 ) Y5 )  ( <= ( + Y5 94 ) Y1 )  )
( or ( <= ( + X1 53 ) X6 )  ( <= ( + X6 74 ) X1 )  ( <= ( + Y1 83 ) Y6 )  ( <= ( + Y6 35 ) Y1 )  )
( or ( <= ( + X1 53 ) X7 )  ( <= ( + X7 26 ) X1 )  ( <= ( + Y1 83 ) Y7 )  ( <= ( + Y7 97 ) Y1 )  )
( or ( <= ( + X1 53 ) X8 )  ( <= ( + X8 86 ) X1 )  ( <= ( + Y1 83 ) Y8 )  ( <= ( + Y8 15 ) Y1 )  )
( or ( <= ( + X1 53 ) X9 )  ( <= ( + X9 97 ) X1 )  ( <= ( + Y1 83 ) Y9 )  ( <= ( + Y9 54 ) Y1 )  )
( or ( <= ( + X1 53 ) X10 )  ( <= ( + X10 55 ) X1 )  ( <= ( + Y1 83 ) Y10 )  ( <= ( + Y10 53 ) Y1 )  )
( or ( <= ( + X1 53 ) X11 )  ( <= ( + X11 27 ) X1 )  ( <= ( + Y1 83 ) Y11 )  ( <= ( + Y11 16 ) Y1 )  )
( or ( <= ( + X1 53 ) X12 )  ( <= ( + X12 49 ) X1 )  ( <= ( + Y1 83 ) Y12 )  ( <= ( + Y12 59 ) Y1 )  )
( or ( <= ( + X1 53 ) X13 )  ( <= ( + X13 44 ) X1 )  ( <= ( + Y1 83 ) Y13 )  ( <= ( + Y13 14 ) Y1 )  )
( or ( <= ( + X1 53 ) X14 )  ( <= ( + X14 82 ) X1 )  ( <= ( + Y1 83 ) Y14 )  ( <= ( + Y14 23 ) Y1 )  )
( or ( <= ( + X2 6 ) X3 )  ( <= ( + X3 81 ) X2 )  ( <= ( + Y2 3 ) Y3 )  ( <= ( + Y3 30 ) Y2 )  )
( or ( <= ( + X2 6 ) X4 )  ( <= ( + X4 51 ) X2 )  ( <= ( + Y2 3 ) Y4 )  ( <= ( + Y4 84 ) Y2 )  )
( or ( <= ( + X2 6 ) X5 )  ( <= ( + X5 20 ) X2 )  ( <= ( + Y2 3 ) Y5 )  ( <= ( + Y5 94 ) Y2 )  )
( or ( <= ( + X2 6 ) X6 )  ( <= ( + X6 74 ) X2 )  ( <= ( + Y2 3 ) Y6 )  ( <= ( + Y6 35 ) Y2 )  )
( or ( <= ( + X2 6 ) X7 )  ( <= ( + X7 26 ) X2 )  ( <= ( + Y2 3 ) Y7 )  ( <= ( + Y7 97 ) Y2 )  )
( or ( <= ( + X2 6 ) X8 )  ( <= ( + X8 86 ) X2 )  ( <= ( + Y2 3 ) Y8 )  ( <= ( + Y8 15 ) Y2 )  )
( or ( <= ( + X2 6 ) X9 )  ( <= ( + X9 97 ) X2 )  ( <= ( + Y2 3 ) Y9 )  ( <= ( + Y9 54 ) Y2 )  )
( or ( <= ( + X2 6 ) X10 )  ( <= ( + X10 55 ) X2 )  ( <= ( + Y2 3 ) Y10 )  ( <= ( + Y10 53 ) Y2 )  )
( or ( <= ( + X2 6 ) X11 )  ( <= ( + X11 27 ) X2 )  ( <= ( + Y2 3 ) Y11 )  ( <= ( + Y11 16 ) Y2 )  )
( or ( <= ( + X2 6 ) X12 )  ( <= ( + X12 49 ) X2 )  ( <= ( + Y2 3 ) Y12 )  ( <= ( + Y12 59 ) Y2 )  )
( or ( <= ( + X2 6 ) X13 )  ( <= ( + X13 44 ) X2 )  ( <= ( + Y2 3 ) Y13 )  ( <= ( + Y13 14 ) Y2 )  )
( or ( <= ( + X2 6 ) X14 )  ( <= ( + X14 82 ) X2 )  ( <= ( + Y2 3 ) Y14 )  ( <= ( + Y14 23 ) Y2 )  )
( or ( <= ( + X3 81 ) X4 )  ( <= ( + X4 51 ) X3 )  ( <= ( + Y3 30 ) Y4 )  ( <= ( + Y4 84 ) Y3 )  )
( or ( <= ( + X3 81 ) X5 )  ( <= ( + X5 20 ) X3 )  ( <= ( + Y3 30 ) Y5 )  ( <= ( + Y5 94 ) Y3 )  )
( or ( <= ( + X3 81 ) X6 )  ( <= ( + X6 74 ) X3 )  ( <= ( + Y3 30 ) Y6 )  ( <= ( + Y6 35 ) Y3 )  )
( or ( <= ( + X3 81 ) X7 )  ( <= ( + X7 26 ) X3 )  ( <= ( + Y3 30 ) Y7 )  ( <= ( + Y7 97 ) Y3 )  )
( or ( <= ( + X3 81 ) X8 )  ( <= ( + X8 86 ) X3 )  ( <= ( + Y3 30 ) Y8 )  ( <= ( + Y8 15 ) Y3 )  )
( or ( <= ( + X3 81 ) X9 )  ( <= ( + X9 97 ) X3 )  ( <= ( + Y3 30 ) Y9 )  ( <= ( + Y9 54 ) Y3 )  )
( or ( <= ( + X3 81 ) X10 )  ( <= ( + X10 55 ) X3 )  ( <= ( + Y3 30 ) Y10 )  ( <= ( + Y10 53 ) Y3 )  )
( or ( <= ( + X3 81 ) X11 )  ( <= ( + X11 27 ) X3 )  ( <= ( + Y3 30 ) Y11 )  ( <= ( + Y11 16 ) Y3 )  )
( or ( <= ( + X3 81 ) X12 )  ( <= ( + X12 49 ) X3 )  ( <= ( + Y3 30 ) Y12 )  ( <= ( + Y12 59 ) Y3 )  )
( or ( <= ( + X3 81 ) X13 )  ( <= ( + X13 44 ) X3 )  ( <= ( + Y3 30 ) Y13 )  ( <= ( + Y13 14 ) Y3 )  )
( or ( <= ( + X3 81 ) X14 )  ( <= ( + X14 82 ) X3 )  ( <= ( + Y3 30 ) Y14 )  ( <= ( + Y14 23 ) Y3 )  )
( or ( <= ( + X4 51 ) X5 )  ( <= ( + X5 20 ) X4 )  ( <= ( + Y4 84 ) Y5 )  ( <= ( + Y5 94 ) Y4 )  )
( or ( <= ( + X4 51 ) X6 )  ( <= ( + X6 74 ) X4 )  ( <= ( + Y4 84 ) Y6 )  ( <= ( + Y6 35 ) Y4 )  )
( or ( <= ( + X4 51 ) X7 )  ( <= ( + X7 26 ) X4 )  ( <= ( + Y4 84 ) Y7 )  ( <= ( + Y7 97 ) Y4 )  )
( or ( <= ( + X4 51 ) X8 )  ( <= ( + X8 86 ) X4 )  ( <= ( + Y4 84 ) Y8 )  ( <= ( + Y8 15 ) Y4 )  )
( or ( <= ( + X4 51 ) X9 )  ( <= ( + X9 97 ) X4 )  ( <= ( + Y4 84 ) Y9 )  ( <= ( + Y9 54 ) Y4 )  )
( or ( <= ( + X4 51 ) X10 )  ( <= ( + X10 55 ) X4 )  ( <= ( + Y4 84 ) Y10 )  ( <= ( + Y10 53 ) Y4 )  )
( or ( <= ( + X4 51 ) X11 )  ( <= ( + X11 27 ) X4 )  ( <= ( + Y4 84 ) Y11 )  ( <= ( + Y11 16 ) Y4 )  )
( or ( <= ( + X4 51 ) X12 )  ( <= ( + X12 49 ) X4 )  ( <= ( + Y4 84 ) Y12 )  ( <= ( + Y12 59 ) Y4 )  )
( or ( <= ( + X4 51 ) X13 )  ( <= ( + X13 44 ) X4 )  ( <= ( + Y4 84 ) Y13 )  ( <= ( + Y13 14 ) Y4 )  )
( or ( <= ( + X4 51 ) X14 )  ( <= ( + X14 82 ) X4 )  ( <= ( + Y4 84 ) Y14 )  ( <= ( + Y14 23 ) Y4 )  )
( or ( <= ( + X5 20 ) X6 )  ( <= ( + X6 74 ) X5 )  ( <= ( + Y5 94 ) Y6 )  ( <= ( + Y6 35 ) Y5 )  )
( or ( <= ( + X5 20 ) X7 )  ( <= ( + X7 26 ) X5 )  ( <= ( + Y5 94 ) Y7 )  ( <= ( + Y7 97 ) Y5 )  )
( or ( <= ( + X5 20 ) X8 )  ( <= ( + X8 86 ) X5 )  ( <= ( + Y5 94 ) Y8 )  ( <= ( + Y8 15 ) Y5 )  )
( or ( <= ( + X5 20 ) X9 )  ( <= ( + X9 97 ) X5 )  ( <= ( + Y5 94 ) Y9 )  ( <= ( + Y9 54 ) Y5 )  )
( or ( <= ( + X5 20 ) X10 )  ( <= ( + X10 55 ) X5 )  ( <= ( + Y5 94 ) Y10 )  ( <= ( + Y10 53 ) Y5 )  )
( or ( <= ( + X5 20 ) X11 )  ( <= ( + X11 27 ) X5 )  ( <= ( + Y5 94 ) Y11 )  ( <= ( + Y11 16 ) Y5 )  )
( or ( <= ( + X5 20 ) X12 )  ( <= ( + X12 49 ) X5 )  ( <= ( + Y5 94 ) Y12 )  ( <= ( + Y12 59 ) Y5 )  )
( or ( <= ( + X5 20 ) X13 )  ( <= ( + X13 44 ) X5 )  ( <= ( + Y5 94 ) Y13 )  ( <= ( + Y13 14 ) Y5 )  )
( or ( <= ( + X5 20 ) X14 )  ( <= ( + X14 82 ) X5 )  ( <= ( + Y5 94 ) Y14 )  ( <= ( + Y14 23 ) Y5 )  )
( or ( <= ( + X6 74 ) X7 )  ( <= ( + X7 26 ) X6 )  ( <= ( + Y6 35 ) Y7 )  ( <= ( + Y7 97 ) Y6 )  )
( or ( <= ( + X6 74 ) X8 )  ( <= ( + X8 86 ) X6 )  ( <= ( + Y6 35 ) Y8 )  ( <= ( + Y8 15 ) Y6 )  )
( or ( <= ( + X6 74 ) X9 )  ( <= ( + X9 97 ) X6 )  ( <= ( + Y6 35 ) Y9 )  ( <= ( + Y9 54 ) Y6 )  )
( or ( <= ( + X6 74 ) X10 )  ( <= ( + X10 55 ) X6 )  ( <= ( + Y6 35 ) Y10 )  ( <= ( + Y10 53 ) Y6 )  )
( or ( <= ( + X6 74 ) X11 )  ( <= ( + X11 27 ) X6 )  ( <= ( + Y6 35 ) Y11 )  ( <= ( + Y11 16 ) Y6 )  )
( or ( <= ( + X6 74 ) X12 )  ( <= ( + X12 49 ) X6 )  ( <= ( + Y6 35 ) Y12 )  ( <= ( + Y12 59 ) Y6 )  )
( or ( <= ( + X6 74 ) X13 )  ( <= ( + X13 44 ) X6 )  ( <= ( + Y6 35 ) Y13 )  ( <= ( + Y13 14 ) Y6 )  )
( or ( <= ( + X6 74 ) X14 )  ( <= ( + X14 82 ) X6 )  ( <= ( + Y6 35 ) Y14 )  ( <= ( + Y14 23 ) Y6 )  )
( or ( <= ( + X7 26 ) X8 )  ( <= ( + X8 86 ) X7 )  ( <= ( + Y7 97 ) Y8 )  ( <= ( + Y8 15 ) Y7 )  )
( or ( <= ( + X7 26 ) X9 )  ( <= ( + X9 97 ) X7 )  ( <= ( + Y7 97 ) Y9 )  ( <= ( + Y9 54 ) Y7 )  )
( or ( <= ( + X7 26 ) X10 )  ( <= ( + X10 55 ) X7 )  ( <= ( + Y7 97 ) Y10 )  ( <= ( + Y10 53 ) Y7 )  )
( or ( <= ( + X7 26 ) X11 )  ( <= ( + X11 27 ) X7 )  ( <= ( + Y7 97 ) Y11 )  ( <= ( + Y11 16 ) Y7 )  )
( or ( <= ( + X7 26 ) X12 )  ( <= ( + X12 49 ) X7 )  ( <= ( + Y7 97 ) Y12 )  ( <= ( + Y12 59 ) Y7 )  )
( or ( <= ( + X7 26 ) X13 )  ( <= ( + X13 44 ) X7 )  ( <= ( + Y7 97 ) Y13 )  ( <= ( + Y13 14 ) Y7 )  )
( or ( <= ( + X7 26 ) X14 )  ( <= ( + X14 82 ) X7 )  ( <= ( + Y7 97 ) Y14 )  ( <= ( + Y14 23 ) Y7 )  )
( or ( <= ( + X8 86 ) X9 )  ( <= ( + X9 97 ) X8 )  ( <= ( + Y8 15 ) Y9 )  ( <= ( + Y9 54 ) Y8 )  )
( or ( <= ( + X8 86 ) X10 )  ( <= ( + X10 55 ) X8 )  ( <= ( + Y8 15 ) Y10 )  ( <= ( + Y10 53 ) Y8 )  )
( or ( <= ( + X8 86 ) X11 )  ( <= ( + X11 27 ) X8 )  ( <= ( + Y8 15 ) Y11 )  ( <= ( + Y11 16 ) Y8 )  )
( or ( <= ( + X8 86 ) X12 )  ( <= ( + X12 49 ) X8 )  ( <= ( + Y8 15 ) Y12 )  ( <= ( + Y12 59 ) Y8 )  )
( or ( <= ( + X8 86 ) X13 )  ( <= ( + X13 44 ) X8 )  ( <= ( + Y8 15 ) Y13 )  ( <= ( + Y13 14 ) Y8 )  )
( or ( <= ( + X8 86 ) X14 )  ( <= ( + X14 82 ) X8 )  ( <= ( + Y8 15 ) Y14 )  ( <= ( + Y14 23 ) Y8 )  )
( or ( <= ( + X9 97 ) X10 )  ( <= ( + X10 55 ) X9 )  ( <= ( + Y9 54 ) Y10 )  ( <= ( + Y10 53 ) Y9 )  )
( or ( <= ( + X9 97 ) X11 )  ( <= ( + X11 27 ) X9 )  ( <= ( + Y9 54 ) Y11 )  ( <= ( + Y11 16 ) Y9 )  )
( or ( <= ( + X9 97 ) X12 )  ( <= ( + X12 49 ) X9 )  ( <= ( + Y9 54 ) Y12 )  ( <= ( + Y12 59 ) Y9 )  )
( or ( <= ( + X9 97 ) X13 )  ( <= ( + X13 44 ) X9 )  ( <= ( + Y9 54 ) Y13 )  ( <= ( + Y13 14 ) Y9 )  )
( or ( <= ( + X9 97 ) X14 )  ( <= ( + X14 82 ) X9 )  ( <= ( + Y9 54 ) Y14 )  ( <= ( + Y14 23 ) Y9 )  )
( or ( <= ( + X10 55 ) X11 )  ( <= ( + X11 27 ) X10 )  ( <= ( + Y10 53 ) Y11 )  ( <= ( + Y11 16 ) Y10 )  )
( or ( <= ( + X10 55 ) X12 )  ( <= ( + X12 49 ) X10 )  ( <= ( + Y10 53 ) Y12 )  ( <= ( + Y12 59 ) Y10 )  )
( or ( <= ( + X10 55 ) X13 )  ( <= ( + X13 44 ) X10 )  ( <= ( + Y10 53 ) Y13 )  ( <= ( + Y13 14 ) Y10 )  )
( or ( <= ( + X10 55 ) X14 )  ( <= ( + X14 82 ) X10 )  ( <= ( + Y10 53 ) Y14 )  ( <= ( + Y14 23 ) Y10 )  )
( or ( <= ( + X11 27 ) X12 )  ( <= ( + X12 49 ) X11 )  ( <= ( + Y11 16 ) Y12 )  ( <= ( + Y12 59 ) Y11 )  )
( or ( <= ( + X11 27 ) X13 )  ( <= ( + X13 44 ) X11 )  ( <= ( + Y11 16 ) Y13 )  ( <= ( + Y13 14 ) Y11 )  )
( or ( <= ( + X11 27 ) X14 )  ( <= ( + X14 82 ) X11 )  ( <= ( + Y11 16 ) Y14 )  ( <= ( + Y14 23 ) Y11 )  )
( or ( <= ( + X12 49 ) X13 )  ( <= ( + X13 44 ) X12 )  ( <= ( + Y12 59 ) Y13 )  ( <= ( + Y13 14 ) Y12 )  )
( or ( <= ( + X12 49 ) X14 )  ( <= ( + X14 82 ) X12 )  ( <= ( + Y12 59 ) Y14 )  ( <= ( + Y14 23 ) Y12 )  )
( or ( <= ( + X13 44 ) X14 )  ( <= ( + X14 82 ) X13 )  ( <= ( + Y13 14 ) Y14 )  ( <= ( + Y14 23 ) Y13 )  )
( >= X0 0)
( <= ( + X0 9) Z)
( >= Y0 0)
( <= ( + Y0 26 ) 193)
( >= X1 0)
( <= ( + X1 53) Z)
( >= Y1 0)
( <= ( + Y1 83 ) 193)
( >= X2 0)
( <= ( + X2 6) Z)
( >= Y2 0)
( <= ( + Y2 3 ) 193)
( >= X3 0)
( <= ( + X3 81) Z)
( >= Y3 0)
( <= ( + Y3 30 ) 193)
( >= X4 0)
( <= ( + X4 51) Z)
( >= Y4 0)
( <= ( + Y4 84 ) 193)
( >= X5 0)
( <= ( + X5 20) Z)
( >= Y5 0)
( <= ( + Y5 94 ) 193)
( >= X6 0)
( <= ( + X6 74) Z)
( >= Y6 0)
( <= ( + Y6 35 ) 193)
( >= X7 0)
( <= ( + X7 26) Z)
( >= Y7 0)
( <= ( + Y7 97 ) 193)
( >= X8 0)
( <= ( + X8 86) Z)
( >= Y8 0)
( <= ( + Y8 15 ) 193)
( >= X9 0)
( <= ( + X9 97) Z)
( >= Y9 0)
( <= ( + Y9 54 ) 193)
( >= X10 0)
( <= ( + X10 55) Z)
( >= Y10 0)
( <= ( + Y10 53 ) 193)
( >= X11 0)
( <= ( + X11 27) Z)
( >= Y11 0)
( <= ( + Y11 16 ) 193)
( >= X12 0)
( <= ( + X12 49) Z)
( >= Y12 0)
( <= ( + Y12 59 ) 193)
( >= X13 0)
( <= ( + X13 44) Z)
( >= Y13 0)
( <= ( + Y13 14 ) 193)
( >= X14 0)
( <= ( + X14 82) Z)
( >= Y14 0)
( <= ( + Y14 23 ) 193)
) )
)(=> $phi $goal))))